benchmark/results/graph__10-1000-0.10-04_19/graph__10-1000-0.10-04_19_QuintonOs_Benders_primal_sub.lp
\ This file has been generated by DOcplex
\ ENCODING=ISO-8859-1
\Problem name: Quinton Bounded Benders_primal_sub

Maximize
 obj: tau
Subject To
 c1: tau <= 0.000977517107
 c2: y_a0_proc_0 + y_a0_proc_1 + y_a0_proc_2 + y_a0_proc_3 - tau = 0
 c3: y_a0_proc_0 <= 0
 c4: y_a0_proc_1 <= 0
 c5: y_a0_proc_2 <= 0
 c6: y_a0_proc_3 <= 1
 c7: tau <= 0.001602564103
 c8: y_a1_proc_0 + y_a1_proc_2 + y_a1_proc_3 - tau = 0
 c9: y_a1_proc_0 <= 1
 c10: y_a1_proc_2 <= 0
 c11: y_a1_proc_3 <= 0
 c12: tau <= 0.001116071429
 c13: y_a2_proc_0 + y_a2_proc_2 + y_a2_proc_3 - tau = 0
 c14: y_a2_proc_0 <= 1
 c15: y_a2_proc_2 <= 0
 c16: y_a2_proc_3 <= 0
 c17: tau <= 0.001116071429
 c18: y_a3_proc_0 + y_a3_proc_1 + y_a3_proc_3 - tau = 0
 c19: y_a3_proc_0 <= 0
 c20: y_a3_proc_1 <= 1
 c21: y_a3_proc_3 <= 0
 c22: tau <= 0.000946073794
 c23: y_a4_proc_0 + y_a4_proc_1 + y_a4_proc_2 - tau = 0
 c24: y_a4_proc_0 <= 1
 c25: y_a4_proc_1 <= 0
 c26: y_a4_proc_2 <= 0
 c27: tau <= 0.001858736059
 c28: y_a5_proc_1 + y_a5_proc_2 - tau = 0
 c29: y_a5_proc_1 <= 1
 c30: y_a5_proc_2 <= 0
 c31: tau <= 0.001216545012
 c32: y_a6_proc_0 + y_a6_proc_1 + y_a6_proc_2 + y_a6_proc_3 - tau = 0
 c33: y_a6_proc_0 <= 0
 c34: y_a6_proc_1 <= 0
 c35: y_a6_proc_2 <= 1
 c36: y_a6_proc_3 <= 0
 c37: tau <= 0.001173708920
 c38: y_a7_proc_0 + y_a7_proc_1 + y_a7_proc_2 + y_a7_proc_3 - tau = 0
 c39: y_a7_proc_0 <= 0
 c40: y_a7_proc_1 <= 0
 c41: y_a7_proc_2 <= 1
 c42: y_a7_proc_3 <= 0
 c43: tau <= 0.001083423619
 c44: y_a8_proc_0 + y_a8_proc_1 + y_a8_proc_2 - tau = 0
 c45: y_a8_proc_0 <= 0
 c46: y_a8_proc_1 <= 1
 c47: y_a8_proc_2 <= 0
 c48: tau <= 0.000903342367
 c49: y_a9_proc_0 + y_a9_proc_1 + y_a9_proc_2 + y_a9_proc_3 - tau = 0
 c50: y_a9_proc_0 <= 0
 c51: y_a9_proc_1 <= 0
 c52: y_a9_proc_2 <= 0
 c53: y_a9_proc_3 <= 1
 c54: u_a0 - u_a1 - 624 y_a1_proc_0 - 802 y_a1_proc_2 - 780 y_a1_proc_3 >= 0
 c55: u_a1 - u_a2 - 896 y_a2_proc_0 - 1112 y_a2_proc_2 - 944 y_a2_proc_3 >= 0
 c56: u_a3 - u_a2 - 896 y_a2_proc_0 - 1112 y_a2_proc_2 - 944 y_a2_proc_3 >= -1
 c57: u_a2 - u_a4 - 1057 y_a4_proc_0 - 1256 y_a4_proc_1 - 969 y_a4_proc_2 >= -1
 c58: u_a2 - u_a5 - 538 y_a5_proc_1 - 963 y_a5_proc_2 >= -1
 c59: u_a6 - u_a3 - 1283 y_a3_proc_0 - 896 y_a3_proc_1 - 827 y_a3_proc_3 >= 0
 c60: u_a7 - u_a6 - 1037 y_a6_proc_0 - 946 y_a6_proc_1 - 822 y_a6_proc_2
      - 1227 y_a6_proc_3 >= -1
 c61: u_a8 - u_a3 - 1283 y_a3_proc_0 - 896 y_a3_proc_1 - 827 y_a3_proc_3 >= -1
 c62: u_a9 - u_a0 - 939 y_a0_proc_0 - 901 y_a0_proc_1 - 1219 y_a0_proc_2
      - 1023 y_a0_proc_3 >= -1
 c63: u_a3 - u_a6 - 1037 y_a6_proc_0 - 946 y_a6_proc_1 - 822 y_a6_proc_2
      - 1227 y_a6_proc_3 >= -1
 c64: u_a6 - u_a2 - 896 y_a2_proc_0 - 1112 y_a2_proc_2 - 944 y_a2_proc_3 >= 0
 c65: u_a8 - u_a9 - 1295 y_a9_proc_0 - 941 y_a9_proc_1 - 1199 y_a9_proc_2
      - 1107 y_a9_proc_3 >= 0
 c66: u_a5 - u_a8 - 1150 y_a8_proc_0 - 923 y_a8_proc_1 - 799 y_a8_proc_2 >= 0
 c67: u_a5 - u_a6 - 1037 y_a6_proc_0 - 946 y_a6_proc_1 - 822 y_a6_proc_2
      - 1227 y_a6_proc_3 >= 0
 c68: u_a8 - u_a5 - 538 y_a5_proc_1 - 963 y_a5_proc_2 >= -1
 c69: u_a9 - u_a4 - 1057 y_a4_proc_0 - 1256 y_a4_proc_1 - 969 y_a4_proc_2 >= -1
 c70: u_a1 - u_a4 - 1057 y_a4_proc_0 - 1256 y_a4_proc_1 - 969 y_a4_proc_2 >= -1
 c71: u_a2 - u_a7 - 1242 y_a7_proc_0 - 1282 y_a7_proc_1 - 852 y_a7_proc_2
      - 806 y_a7_proc_3 >= 0
 c72: u_a3 - u_a5 - 538 y_a5_proc_1 - 963 y_a5_proc_2 >= -1
 c73: u_a4 - u_a1 - 624 y_a1_proc_0 - 802 y_a1_proc_2 - 780 y_a1_proc_3 >= 0
 c74: u_a1 - u_a0 - 1219 y_a0_proc_2 >= -2604
 c75: u_a1 - u_a0 - 1023 y_a0_proc_3 >= -1309
 c76: u_a1 - u_a0 - 939 y_a0_proc_0 >= -1309
 c77: u_a0 - u_a1 - 802 y_a1_proc_2 >= -2577
 c78: u_a0 - u_a1 - 780 y_a1_proc_3 >= -1282
 c79: u_a0 - u_a1 - 624 y_a1_proc_0 >= -1282
 c80: u_a2 - u_a0 - 1219 y_a0_proc_2 >= -2577
 c81: u_a2 - u_a0 - 1023 y_a0_proc_3 >= -1282
 c82: u_a2 - u_a0 - 939 y_a0_proc_0 >= -1282
 c83: u_a0 - u_a2 - 1112 y_a2_proc_2 >= -2604
 c84: u_a0 - u_a2 - 944 y_a2_proc_3 >= -1309
 c85: u_a0 - u_a2 - 896 y_a2_proc_0 >= -1309
 c86: u_a3 - u_a0 - 1023 y_a0_proc_3 >= -1309
 c87: u_a3 - u_a0 - 939 y_a0_proc_0 >= -2604
 c88: u_a3 - u_a0 - 901 y_a0_proc_1 >= -1309
 c89: u_a0 - u_a3 - 827 y_a3_proc_3 >= -1282
 c90: u_a0 - u_a3 - 1283 y_a3_proc_0 >= -2577
 c91: u_a0 - u_a3 - 896 y_a3_proc_1 >= -1282
 c92: u_a4 - u_a0 - 1219 y_a0_proc_2 >= -2604
 c93: u_a4 - u_a0 - 939 y_a0_proc_0 >= -1309
 c94: u_a4 - u_a0 - 901 y_a0_proc_1 >= -2604
 c95: u_a0 - u_a4 - 969 y_a4_proc_2 >= -2577
 c96: u_a0 - u_a4 - 1057 y_a4_proc_0 >= -1282
 c97: u_a0 - u_a4 - 1256 y_a4_proc_1 >= -2577
 c98: u_a5 - u_a0 - 1219 y_a0_proc_2 >= -2577
 c99: u_a5 - u_a0 - 901 y_a0_proc_1 >= -1282
 c100: u_a0 - u_a5 - 963 y_a5_proc_2 >= -2604
 c101: u_a0 - u_a5 - 538 y_a5_proc_1 >= -1309
 c102: u_a6 - u_a0 - 1219 y_a0_proc_2 >= -1309
 c103: u_a6 - u_a0 - 1023 y_a0_proc_3 >= -1309
 c104: u_a6 - u_a0 - 939 y_a0_proc_0 >= -2604
 c105: u_a6 - u_a0 - 901 y_a0_proc_1 >= -2604
 c106: u_a0 - u_a6 - 822 y_a6_proc_2 >= -1282
 c107: u_a0 - u_a6 - 1227 y_a6_proc_3 >= -1282
 c108: u_a0 - u_a6 - 1037 y_a6_proc_0 >= -2577
 c109: u_a0 - u_a6 - 946 y_a6_proc_1 >= -2577
 c110: u_a7 - u_a0 - 1219 y_a0_proc_2 >= -1309
 c111: u_a7 - u_a0 - 1023 y_a0_proc_3 >= -1309
 c112: u_a7 - u_a0 - 939 y_a0_proc_0 >= -2604
 c113: u_a7 - u_a0 - 901 y_a0_proc_1 >= -2604
 c114: u_a0 - u_a7 - 852 y_a7_proc_2 >= -1282
 c115: u_a0 - u_a7 - 806 y_a7_proc_3 >= -1282
 c116: u_a0 - u_a7 - 1242 y_a7_proc_0 >= -2577
 c117: u_a0 - u_a7 - 1282 y_a7_proc_1 >= -2577
 c118: u_a8 - u_a0 - 1219 y_a0_proc_2 >= -2577
 c119: u_a8 - u_a0 - 939 y_a0_proc_0 >= -2577
 c120: u_a8 - u_a0 - 901 y_a0_proc_1 >= -1282
 c121: u_a0 - u_a8 - 799 y_a8_proc_2 >= -2604
 c122: u_a0 - u_a8 - 1150 y_a8_proc_0 >= -2604
 c123: u_a0 - u_a8 - 923 y_a8_proc_1 >= -1309
 c124: u_a9 - u_a0 - 1219 y_a0_proc_2 >= -2591
 c125: u_a9 - u_a0 - 1023 y_a0_proc_3 >= -1
 c126: u_a9 - u_a0 - 939 y_a0_proc_0 >= -2591
 c127: u_a9 - u_a0 - 901 y_a0_proc_1 >= -2591
 c128: u_a0 - u_a9 - 1199 y_a9_proc_2 >= -2590
 c129: u_a0 - u_a9 - 1107 y_a9_proc_3 >= 0
 c130: u_a0 - u_a9 - 1295 y_a9_proc_0 >= -2590
 c131: u_a0 - u_a9 - 941 y_a9_proc_1 >= -2590
 c132: u_a2 - u_a1 - 802 y_a1_proc_2 >= -2591
 c133: u_a2 - u_a1 - 780 y_a1_proc_3 >= -2591
 c134: u_a2 - u_a1 - 624 y_a1_proc_0 >= -1
 c135: u_a1 - u_a2 - 1112 y_a2_proc_2 >= -2590
 c136: u_a1 - u_a2 - 944 y_a2_proc_3 >= -2590
 c137: u_a1 - u_a2 - 896 y_a2_proc_0 >= 0
 c138: u_a3 - u_a1 - 780 y_a1_proc_3 >= -2577
 c139: u_a3 - u_a1 - 624 y_a1_proc_0 >= -1282
 c140: u_a1 - u_a3 - 827 y_a3_proc_3 >= -2604
 c141: u_a1 - u_a3 - 1283 y_a3_proc_0 >= -1309
 c142: u_a4 - u_a1 - 802 y_a1_proc_2 >= -2590
 c143: u_a4 - u_a1 - 624 y_a1_proc_0 >= 0
 c144: u_a1 - u_a4 - 969 y_a4_proc_2 >= -2591
 c145: u_a1 - u_a4 - 1057 y_a4_proc_0 >= -1
 c146: u_a5 - u_a1 - 802 y_a1_proc_2 >= -2604
 c147: u_a1 - u_a5 - 963 y_a5_proc_2 >= -2577
 c148: u_a6 - u_a1 - 802 y_a1_proc_2 >= -1282
 c149: u_a6 - u_a1 - 780 y_a1_proc_3 >= -2577
 c150: u_a6 - u_a1 - 624 y_a1_proc_0 >= -1282
 c151: u_a1 - u_a6 - 822 y_a6_proc_2 >= -1309
 c152: u_a1 - u_a6 - 1227 y_a6_proc_3 >= -2604
 c153: u_a1 - u_a6 - 1037 y_a6_proc_0 >= -1309
 c154: u_a7 - u_a1 - 802 y_a1_proc_2 >= -1309
 c155: u_a7 - u_a1 - 780 y_a1_proc_3 >= -2604
 c156: u_a7 - u_a1 - 624 y_a1_proc_0 >= -1309
 c157: u_a1 - u_a7 - 852 y_a7_proc_2 >= -1282
 c158: u_a1 - u_a7 - 806 y_a7_proc_3 >= -2577
 c159: u_a1 - u_a7 - 1242 y_a7_proc_0 >= -1282
 c160: u_a8 - u_a1 - 802 y_a1_proc_2 >= -2577
 c161: u_a8 - u_a1 - 624 y_a1_proc_0 >= -1282
 c162: u_a1 - u_a8 - 799 y_a8_proc_2 >= -2604
 c163: u_a1 - u_a8 - 1150 y_a8_proc_0 >= -1309
 c164: u_a9 - u_a1 - 802 y_a1_proc_2 >= -2577
 c165: u_a9 - u_a1 - 780 y_a1_proc_3 >= -1282
 c166: u_a9 - u_a1 - 624 y_a1_proc_0 >= -1282
 c167: u_a1 - u_a9 - 1199 y_a9_proc_2 >= -2604
 c168: u_a1 - u_a9 - 1107 y_a9_proc_3 >= -1309
 c169: u_a1 - u_a9 - 1295 y_a9_proc_0 >= -1309
 c170: u_a3 - u_a2 - 944 y_a2_proc_3 >= -2604
 c171: u_a3 - u_a2 - 896 y_a2_proc_0 >= -1309
 c172: u_a2 - u_a3 - 827 y_a3_proc_3 >= -2577
 c173: u_a2 - u_a3 - 1283 y_a3_proc_0 >= -1282
 c174: u_a4 - u_a2 - 1112 y_a2_proc_2 >= -2590
 c175: u_a4 - u_a2 - 896 y_a2_proc_0 >= 0
 c176: u_a2 - u_a4 - 969 y_a4_proc_2 >= -2591
 c177: u_a2 - u_a4 - 1057 y_a4_proc_0 >= -1
 c178: u_a5 - u_a2 - 1112 y_a2_proc_2 >= -2604
 c179: u_a2 - u_a5 - 963 y_a5_proc_2 >= -2577
 c180: u_a6 - u_a2 - 1112 y_a2_proc_2 >= -1309
 c181: u_a6 - u_a2 - 944 y_a2_proc_3 >= -2604
 c182: u_a6 - u_a2 - 896 y_a2_proc_0 >= -1309
 c183: u_a2 - u_a6 - 822 y_a6_proc_2 >= -1282
 c184: u_a2 - u_a6 - 1227 y_a6_proc_3 >= -2577
 c185: u_a2 - u_a6 - 1037 y_a6_proc_0 >= -1282
 c186: u_a7 - u_a2 - 1112 y_a2_proc_2 >= -1309
 c187: u_a7 - u_a2 - 944 y_a2_proc_3 >= -2604
 c188: u_a7 - u_a2 - 896 y_a2_proc_0 >= -1309
 c189: u_a2 - u_a7 - 852 y_a7_proc_2 >= -1282
 c190: u_a2 - u_a7 - 806 y_a7_proc_3 >= -2577
 c191: u_a2 - u_a7 - 1242 y_a7_proc_0 >= -1282
 c192: u_a8 - u_a2 - 1112 y_a2_proc_2 >= -2604
 c193: u_a8 - u_a2 - 896 y_a2_proc_0 >= -1309
 c194: u_a2 - u_a8 - 799 y_a8_proc_2 >= -2577
 c195: u_a2 - u_a8 - 1150 y_a8_proc_0 >= -1282
 c196: u_a9 - u_a2 - 1112 y_a2_proc_2 >= -2604
 c197: u_a9 - u_a2 - 944 y_a2_proc_3 >= -1309
 c198: u_a9 - u_a2 - 896 y_a2_proc_0 >= -1309
 c199: u_a2 - u_a9 - 1199 y_a9_proc_2 >= -2577
 c200: u_a2 - u_a9 - 1107 y_a9_proc_3 >= -1282
 c201: u_a2 - u_a9 - 1295 y_a9_proc_0 >= -1282
 c202: u_a4 - u_a3 - 1283 y_a3_proc_0 >= -1282
 c203: u_a4 - u_a3 - 896 y_a3_proc_1 >= -1282
 c204: u_a3 - u_a4 - 1057 y_a4_proc_0 >= -1309
 c205: u_a3 - u_a4 - 1256 y_a4_proc_1 >= -1309
 c206: u_a5 - u_a3 - 896 y_a3_proc_1 >= 0
 c207: u_a3 - u_a5 - 538 y_a5_proc_1 >= -1
 c208: u_a6 - u_a3 - 827 y_a3_proc_3 >= -2604
 c209: u_a6 - u_a3 - 1283 y_a3_proc_0 >= -2604
 c210: u_a6 - u_a3 - 896 y_a3_proc_1 >= -1309
 c211: u_a3 - u_a6 - 1227 y_a6_proc_3 >= -2577
 c212: u_a3 - u_a6 - 1037 y_a6_proc_0 >= -2577
 c213: u_a3 - u_a6 - 946 y_a6_proc_1 >= -1282
 c214: u_a7 - u_a3 - 827 y_a3_proc_3 >= -2577
 c215: u_a7 - u_a3 - 1283 y_a3_proc_0 >= -2577
 c216: u_a7 - u_a3 - 896 y_a3_proc_1 >= -1282
 c217: u_a3 - u_a7 - 806 y_a7_proc_3 >= -2604
 c218: u_a3 - u_a7 - 1242 y_a7_proc_0 >= -2604
 c219: u_a3 - u_a7 - 1282 y_a7_proc_1 >= -1309
 c220: u_a8 - u_a3 - 1283 y_a3_proc_0 >= -2590
 c221: u_a8 - u_a3 - 896 y_a3_proc_1 >= 0
 c222: u_a3 - u_a8 - 1150 y_a8_proc_0 >= -2591
 c223: u_a3 - u_a8 - 923 y_a8_proc_1 >= -1
 c224: u_a9 - u_a3 - 827 y_a3_proc_3 >= -1282
 c225: u_a9 - u_a3 - 1283 y_a3_proc_0 >= -2577
 c226: u_a9 - u_a3 - 896 y_a3_proc_1 >= -1282
 c227: u_a3 - u_a9 - 1107 y_a9_proc_3 >= -1309
 c228: u_a3 - u_a9 - 1295 y_a9_proc_0 >= -2604
 c229: u_a3 - u_a9 - 941 y_a9_proc_1 >= -1309
 c230: u_a5 - u_a4 - 969 y_a4_proc_2 >= -2604
 c231: u_a5 - u_a4 - 1256 y_a4_proc_1 >= -1309
 c232: u_a4 - u_a5 - 963 y_a5_proc_2 >= -2577
 c233: u_a4 - u_a5 - 538 y_a5_proc_1 >= -1282
 c234: u_a6 - u_a4 - 969 y_a4_proc_2 >= -1309
 c235: u_a6 - u_a4 - 1057 y_a4_proc_0 >= -1309
 c236: u_a6 - u_a4 - 1256 y_a4_proc_1 >= -2604
 c237: u_a4 - u_a6 - 822 y_a6_proc_2 >= -1282
 c238: u_a4 - u_a6 - 1037 y_a6_proc_0 >= -1282
 c239: u_a4 - u_a6 - 946 y_a6_proc_1 >= -2577
 c240: u_a7 - u_a4 - 969 y_a4_proc_2 >= -1309
 c241: u_a7 - u_a4 - 1057 y_a4_proc_0 >= -1309
 c242: u_a7 - u_a4 - 1256 y_a4_proc_1 >= -2604
 c243: u_a4 - u_a7 - 852 y_a7_proc_2 >= -1282
 c244: u_a4 - u_a7 - 1242 y_a7_proc_0 >= -1282
 c245: u_a4 - u_a7 - 1282 y_a7_proc_1 >= -2577
 c246: u_a8 - u_a4 - 969 y_a4_proc_2 >= -2604
 c247: u_a8 - u_a4 - 1057 y_a4_proc_0 >= -1309
 c248: u_a8 - u_a4 - 1256 y_a4_proc_1 >= -1309
 c249: u_a4 - u_a8 - 799 y_a8_proc_2 >= -2577
 c250: u_a4 - u_a8 - 1150 y_a8_proc_0 >= -1282
 c251: u_a4 - u_a8 - 923 y_a8_proc_1 >= -1282
 c252: u_a9 - u_a4 - 969 y_a4_proc_2 >= -2577
 c253: u_a9 - u_a4 - 1057 y_a4_proc_0 >= -1282
 c254: u_a9 - u_a4 - 1256 y_a4_proc_1 >= -2577
 c255: u_a4 - u_a9 - 1199 y_a9_proc_2 >= -2604
 c256: u_a4 - u_a9 - 1295 y_a9_proc_0 >= -1309
 c257: u_a4 - u_a9 - 941 y_a9_proc_1 >= -2604
 c258: u_a6 - u_a5 - 963 y_a5_proc_2 >= -1309
 c259: u_a6 - u_a5 - 538 y_a5_proc_1 >= -1309
 c260: u_a5 - u_a6 - 822 y_a6_proc_2 >= -1282
 c261: u_a5 - u_a6 - 946 y_a6_proc_1 >= -1282
 c262: u_a7 - u_a5 - 963 y_a5_proc_2 >= -1282
 c263: u_a7 - u_a5 - 538 y_a5_proc_1 >= -1282
 c264: u_a5 - u_a7 - 852 y_a7_proc_2 >= -1309
 c265: u_a5 - u_a7 - 1282 y_a7_proc_1 >= -1309
 c266: u_a8 - u_a5 - 963 y_a5_proc_2 >= -2591
 c267: u_a8 - u_a5 - 538 y_a5_proc_1 >= -1
 c268: u_a5 - u_a8 - 799 y_a8_proc_2 >= -2590
 c269: u_a5 - u_a8 - 923 y_a8_proc_1 >= 0
 c270: u_a9 - u_a5 - 963 y_a5_proc_2 >= -2604
 c271: u_a9 - u_a5 - 538 y_a5_proc_1 >= -1309
 c272: u_a5 - u_a9 - 1199 y_a9_proc_2 >= -2577
 c273: u_a5 - u_a9 - 941 y_a9_proc_1 >= -1282
 c274: u_a7 - u_a6 - 822 y_a6_proc_2 >= -1
 c275: u_a7 - u_a6 - 1227 y_a6_proc_3 >= -2591
 c276: u_a7 - u_a6 - 1037 y_a6_proc_0 >= -2591
 c277: u_a7 - u_a6 - 946 y_a6_proc_1 >= -2591
 c278: u_a6 - u_a7 - 852 y_a7_proc_2 >= 0
 c279: u_a6 - u_a7 - 806 y_a7_proc_3 >= -2590
 c280: u_a6 - u_a7 - 1242 y_a7_proc_0 >= -2590
 c281: u_a6 - u_a7 - 1282 y_a7_proc_1 >= -2590
 c282: u_a8 - u_a6 - 822 y_a6_proc_2 >= -1282
 c283: u_a8 - u_a6 - 1037 y_a6_proc_0 >= -2577
 c284: u_a8 - u_a6 - 946 y_a6_proc_1 >= -1282
 c285: u_a6 - u_a8 - 799 y_a8_proc_2 >= -1309
 c286: u_a6 - u_a8 - 1150 y_a8_proc_0 >= -2604
 c287: u_a6 - u_a8 - 923 y_a8_proc_1 >= -1309
 c288: u_a9 - u_a6 - 822 y_a6_proc_2 >= -1282
 c289: u_a9 - u_a6 - 1227 y_a6_proc_3 >= -1282
 c290: u_a9 - u_a6 - 1037 y_a6_proc_0 >= -2577
 c291: u_a9 - u_a6 - 946 y_a6_proc_1 >= -2577
 c292: u_a6 - u_a9 - 1199 y_a9_proc_2 >= -1309
 c293: u_a6 - u_a9 - 1107 y_a9_proc_3 >= -1309
 c294: u_a6 - u_a9 - 1295 y_a9_proc_0 >= -2604
 c295: u_a6 - u_a9 - 941 y_a9_proc_1 >= -2604
 c296: u_a8 - u_a7 - 852 y_a7_proc_2 >= -1309
 c297: u_a8 - u_a7 - 1242 y_a7_proc_0 >= -2604
 c298: u_a8 - u_a7 - 1282 y_a7_proc_1 >= -1309
 c299: u_a7 - u_a8 - 799 y_a8_proc_2 >= -1282
 c300: u_a7 - u_a8 - 1150 y_a8_proc_0 >= -2577
 c301: u_a7 - u_a8 - 923 y_a8_proc_1 >= -1282
 c302: u_a9 - u_a7 - 852 y_a7_proc_2 >= -1282
 c303: u_a9 - u_a7 - 806 y_a7_proc_3 >= -1282
 c304: u_a9 - u_a7 - 1242 y_a7_proc_0 >= -2577
 c305: u_a9 - u_a7 - 1282 y_a7_proc_1 >= -2577
 c306: u_a7 - u_a9 - 1199 y_a9_proc_2 >= -1309
 c307: u_a7 - u_a9 - 1107 y_a9_proc_3 >= -1309
 c308: u_a7 - u_a9 - 1295 y_a9_proc_0 >= -2604
 c309: u_a7 - u_a9 - 941 y_a9_proc_1 >= -2604
 c310: u_a9 - u_a8 - 799 y_a8_proc_2 >= -2577
 c311: u_a9 - u_a8 - 1150 y_a8_proc_0 >= -2577
 c312: u_a9 - u_a8 - 923 y_a8_proc_1 >= -1282
 c313: u_a8 - u_a9 - 1199 y_a9_proc_2 >= -2604
 c314: u_a8 - u_a9 - 1295 y_a9_proc_0 >= -2604
 c315: u_a8 - u_a9 - 941 y_a9_proc_1 >= -1309

Bounds
End
